c Random Network
p max    10      20
n         1  s
n        10  t
a       5       1      43
a       8      10      35
a       6       1      37
a       1       2      45
a       7       9      39
a      10       6       7
a       1       4      35
a       3       9      28
a       6       5      42
a       9       4      20
a       9       6      16
a      10       7       4
a       2       3      24
a       4       7      28
a       4       1      36
a       6       9      24
a       3       2       1
a       9       3      17
a       1       5      46
a       5       9      43
